70
0 16 11 29 61 13 66 50 37 36 
53 54 1 32 38 31 10 40 43 35 
51 58 34 24 68 7 64 46 48 39 
28 65 45 49 8 27 18 12 57 2 
42 25 67 19 14 5 44 21 69 6 
60 55 4 63 15 26 59 30 47 3 
33 17 56 9 23 62 41 22 20 52 
